50 10
0 0 0 2.6
0 10 26 4.9
0 20 75 3.4
0 30 109 4.6
0 40 155 2.3
0 50 178 4.4
0 60 222 1.1
0 70 233 2.9
0 80 262 2.7
0 90 289 2.4
1 0 0 2.6
1 10 26 4.9
1 20 75 3.4
1 30 109 4.6
1 40 155 2.3
1 50 178 4.4
1 60 222 1.1
1 70 233 2.9
1 80 262 2.7
1 90 289 2.4
2 0 0 2.6
2 10 26 4.9
2 20 75 3.4
2 30 109 4.6
2 40 155 2.3
2 50 178 4.4
2 60 222 1.1
2 70 233 2.9
2 80 262 2.7
2 90 289 2.4
3 0 0 2.6
3 10 26 4.9
3 20 75 3.4
3 30 109 4.6
3 40 155 2.3
3 50 178 4.4
3 60 222 1.1
3 70 233 2.9
3 80 262 2.7
3 90 289 2.4
4 0 0 2.6
4 10 26 4.9
4 20 75 3.4
4 30 109 4.6
4 40 155 2.3
4 50 178 4.4
4 60 222 1.1
4 70 233 2.9
4 80 262 2.7
4 90 289 2.4
5 0 0 2.6
5 10 26 4.9
5 20 75 3.4
5 30 109 4.6
5 40 155 2.3
5 50 178 4.4
5 60 222 1.1
5 70 233 2.9
5 80 262 2.7
5 90 289 2.4
6 0 0 2.6
6 10 26 4.9
6 20 75 3.4
6 30 109 4.6
6 40 155 2.3
6 50 178 4.4
6 60 222 1.1
6 70 233 2.9
6 80 262 2.7
6 90 289 2.4
7 0 0 2.6
7 10 26 4.9
7 20 75 3.4
7 30 109 4.6
7 40 155 2.3
7 50 178 4.4
7 60 222 1.1
7 70 233 2.9
7 80 262 2.7
7 90 289 2.4
8 0 0 2.6
8 10 26 4.9
8 20 75 3.4
8 30 109 4.6
8 40 155 2.3
8 50 178 4.4
8 60 222 1.1
8 70 233 2.9
8 80 262 2.7
8 90 289 2.4
9 0 0 2.6
9 10 26 4.9
9 20 75 3.4
9 30 109 4.6
9 40 155 2.3
9 50 178 4.4
9 60 222 1.1
9 70 233 2.9
9 80 262 2.7
9 90 289 2.4
10 0 0 2.6
10 10 26 4.9
10 20 75 3.4
10 30 109 4.6
10 40 155 2.3
10 50 178 4.4
10 60 222 1.1
10 70 233 2.9
10 80 262 2.7
10 90 289 2.4
11 0 0 2.6
11 10 26 4.9
11 20 75 3.4
11 30 109 4.6
11 40 155 2.3
11 50 178 4.4
11 60 222 1.1
11 70 233 2.9
11 80 262 2.7
11 90 289 2.4
12 0 0 2.6
12 10 26 4.9
12 20 75 3.4
12 30 109 4.6
12 40 155 2.3
12 50 178 4.4
12 60 222 1.1
12 70 233 2.9
12 80 262 2.7
12 90 289 2.4
13 0 0 2.6
13 10 26 4.9
13 20 75 3.4
13 30 109 4.6
13 40 155 2.3
13 50 178 4.4
13 60 222 1.1
13 70 233 2.9
13 80 262 2.7
13 90 289 2.4
14 0 0 2.6
14 10 26 4.9
14 20 75 3.4
14 30 109 4.6
14 40 155 2.3
14 50 178 4.4
14 60 222 1.1
14 70 233 2.9
14 80 262 2.7
14 90 289 2.4
15 0 0 2.6
15 10 26 4.9
15 20 75 3.4
15 30 109 4.6
15 40 155 2.3
15 50 178 4.4
15 60 222 1.1
15 70 233 2.9
15 80 262 2.7
15 90 289 2.4
16 0 0 2.6
16 10 26 4.9
16 20 75 3.4
16 30 109 4.6
16 40 155 2.3
16 50 178 4.4
16 60 222 1.1
16 70 233 2.9
16 80 262 2.7
16 90 289 2.4
17 0 0 2.6
17 10 26 4.9
17 20 75 3.4
17 30 109 4.6
17 40 155 2.3
17 50 178 4.4
17 60 222 1.1
17 70 233 2.9
17 80 262 2.7
17 90 289 2.4
18 0 0 2.6
18 10 26 4.9
18 20 75 3.4
18 30 109 4.6
18 40 155 2.3
18 50 178 4.4
18 60 222 1.1
18 70 233 2.9
18 80 262 2.7
18 90 289 2.4
19 0 0 2.6
19 10 26 4.9
19 20 75 3.4
19 30 109 4.6
19 40 155 2.3
19 50 178 4.4
19 60 222 1.1
19 70 233 2.9
19 80 262 2.7
19 90 289 2.4
20 0 0 2.6
20 10 26 4.9
20 20 75 3.4
20 30 109 4.6
20 40 155 2.3
20 50 178 4.4
20 60 222 1.1
20 70 233 2.9
20 80 262 2.7
20 90 289 2.4
21 0 0 2.6
21 10 26 4.9
21 20 75 3.4
21 30 109 4.6
21 40 155 2.3
21 50 178 4.4
21 60 222 1.1
21 70 233 2.9
21 80 262 2.7
21 90 289 2.4
22 0 0 2.6
22 10 26 4.9
22 20 75 3.4
22 30 109 4.6
22 40 155 2.3
22 50 178 4.4
22 60 222 1.1
22 70 233 2.9
22 80 262 2.7
22 90 289 2.4
23 0 0 2.6
23 10 26 4.9
23 20 75 3.4
23 30 109 4.6
23 40 155 2.3
23 50 178 4.4
23 60 222 1.1
23 70 233 2.9
23 80 262 2.7
23 90 289 2.4
24 0 0 2.6
24 10 26 4.9
24 20 75 3.4
24 30 109 4.6
24 40 155 2.3
24 50 178 4.4
24 60 222 1.1
24 70 233 2.9
24 80 262 2.7
24 90 289 2.4
25 0 0 2.6
25 10 26 4.9
25 20 75 3.4
25 30 109 4.6
25 40 155 2.3
25 50 178 4.4
25 60 222 1.1
25 70 233 2.9
25 80 262 2.7
25 90 289 2.4
26 0 0 2.6
26 10 26 4.9
26 20 75 3.4
26 30 109 4.6
26 40 155 2.3
26 50 178 4.4
26 60 222 1.1
26 70 233 2.9
26 80 262 2.7
26 90 289 2.4
27 0 0 2.6
27 10 26 4.9
27 20 75 3.4
27 30 109 4.6
27 40 155 2.3
27 50 178 4.4
27 60 222 1.1
27 70 233 2.9
27 80 262 2.7
27 90 289 2.4
28 0 0 2.6
28 10 26 4.9
28 20 75 3.4
28 30 109 4.6
28 40 155 2.3
28 50 178 4.4
28 60 222 1.1
28 70 233 2.9
28 80 262 2.7
28 90 289 2.4
29 0 0 2.6
29 10 26 4.9
29 20 75 3.4
29 30 109 4.6
29 40 155 2.3
29 50 178 4.4
29 60 222 1.1
29 70 233 2.9
29 80 262 2.7
29 90 289 2.4
30 0 0 2.6
30 10 26 4.9
30 20 75 3.4
30 30 109 4.6
30 40 155 2.3
30 50 178 4.4
30 60 222 1.1
30 70 233 2.9
30 80 262 2.7
30 90 289 2.4
31 0 0 2.6
31 10 26 4.9
31 20 75 3.4
31 30 109 4.6
31 40 155 2.3
31 50 178 4.4
31 60 222 1.1
31 70 233 2.9
31 80 262 2.7
31 90 289 2.4
32 0 0 2.6
32 10 26 4.9
32 20 75 3.4
32 30 109 4.6
32 40 155 2.3
32 50 178 4.4
32 60 222 1.1
32 70 233 2.9
32 80 262 2.7
32 90 289 2.4
33 0 0 2.6
33 10 26 4.9
33 20 75 3.4
33 30 109 4.6
33 40 155 2.3
33 50 178 4.4
33 60 222 1.1
33 70 233 2.9
33 80 262 2.7
33 90 289 2.4
34 0 0 2.6
34 10 26 4.9
34 20 75 3.4
34 30 109 4.6
34 40 155 2.3
34 50 178 4.4
34 60 222 1.1
34 70 233 2.9
34 80 262 2.7
34 90 289 2.4
35 0 0 2.6
35 10 26 4.9
35 20 75 3.4
35 30 109 4.6
35 40 155 2.3
35 50 178 4.4
35 60 222 1.1
35 70 233 2.9
35 80 262 2.7
35 90 289 2.4
36 0 0 2.6
36 10 26 4.9
36 20 75 3.4
36 30 109 4.6
36 40 155 2.3
36 50 178 4.4
36 60 222 1.1
36 70 233 2.9
36 80 262 2.7
36 90 289 2.4
37 0 0 2.6
37 10 26 4.9
37 20 75 3.4
37 30 109 4.6
37 40 155 2.3
37 50 178 4.4
37 60 222 1.1
37 70 233 2.9
37 80 262 2.7
37 90 289 2.4
38 0 0 2.6
38 10 26 4.9
38 20 75 3.4
38 30 109 4.6
38 40 155 2.3
38 50 178 4.4
38 60 222 1.1
38 70 233 2.9
38 80 262 2.7
38 90 289 2.4
39 0 0 2.6
39 10 26 4.9
39 20 75 3.4
39 30 109 4.6
39 40 155 2.3
39 50 178 4.4
39 60 222 1.1
39 70 233 2.9
39 80 262 2.7
39 90 289 2.4
40 0 0 2.6
40 10 26 4.9
40 20 75 3.4
40 30 109 4.6
40 40 155 2.3
40 50 178 4.4
40 60 222 1.1
40 70 233 2.9
40 80 262 2.7
40 90 289 2.4
41 0 0 2.6
41 10 26 4.9
41 20 75 3.4
41 30 109 4.6
41 40 155 2.3
41 50 178 4.4
41 60 222 1.1
41 70 233 2.9
41 80 262 2.7
41 90 289 2.4
42 0 0 2.6
42 10 26 4.9
42 20 75 3.4
42 30 109 4.6
42 40 155 2.3
42 50 178 4.4
42 60 222 1.1
42 70 233 2.9
42 80 262 2.7
42 90 289 2.4
43 0 0 2.6
43 10 26 4.9
43 20 75 3.4
43 30 109 4.6
43 40 155 2.3
43 50 178 4.4
43 60 222 1.1
43 70 233 2.9
43 80 262 2.7
43 90 289 2.4
44 0 0 2.6
44 10 26 4.9
44 20 75 3.4
44 30 109 4.6
44 40 155 2.3
44 50 178 4.4
44 60 222 1.1
44 70 233 2.9
44 80 262 2.7
44 90 289 2.4
45 0 0 2.6
45 10 26 4.9
45 20 75 3.4
45 30 109 4.6
45 40 155 2.3
45 50 178 4.4
45 60 222 1.1
45 70 233 2.9
45 80 262 2.7
45 90 289 2.4
46 0 0 2.6
46 10 26 4.9
46 20 75 3.4
46 30 109 4.6
46 40 155 2.3
46 50 178 4.4
46 60 222 1.1
46 70 233 2.9
46 80 262 2.7
46 90 289 2.4
47 0 0 2.6
47 10 26 4.9
47 20 75 3.4
47 30 109 4.6
47 40 155 2.3
47 50 178 4.4
47 60 222 1.1
47 70 233 2.9
47 80 262 2.7
47 90 289 2.4
48 0 0 2.6
48 10 26 4.9
48 20 75 3.4
48 30 109 4.6
48 40 155 2.3
48 50 178 4.4
48 60 222 1.1
48 70 233 2.9
48 80 262 2.7
48 90 289 2.4
49 0 0 2.6
49 10 26 4.9
49 20 75 3.4
49 30 109 4.6
49 40 155 2.3
49 50 178 4.4
49 60 222 1.1
49 70 233 2.9
49 80 262 2.7
49 90 289 2.4
